
(set-logic HORN)
(declare-fun zero_136 () Int)
(declare-fun succ_132 (Int) Int)
(declare-datatypes ((Bool_297 0)) (((false_297) (true_297))))
(declare-fun diseqBool_138 (Bool_297 Bool_297) Bool)
(declare-fun isfalse_138 (Bool_297) Bool)
(declare-fun istrue_138 (Bool_297) Bool)
(assert (isfalse_138 false_297))
(assert (istrue_138 true_297))
(assert (diseqBool_138 false_297 true_297))
(assert (diseqBool_138 true_297 false_297))
(declare-fun and_297 (Bool_297 Bool_297 Bool_297) Bool)
(declare-fun or_303 (Bool_297 Bool_297 Bool_297) Bool)
(declare-fun hence_297 (Bool_297 Bool_297 Bool_297) Bool)
(declare-fun not_301 (Bool_297 Bool_297) Bool)
(assert (and_297 false_297 false_297 false_297))
(assert (and_297 false_297 true_297 false_297))
(assert (and_297 false_297 false_297 true_297))
(assert (and_297 true_297 true_297 true_297))
(assert (or_303 false_297 false_297 false_297))
(assert (or_303 true_297 true_297 false_297))
(assert (or_303 true_297 false_297 true_297))
(assert (or_303 true_297 true_297 true_297))
(assert (hence_297 true_297 false_297 false_297))
(assert (hence_297 false_297 true_297 false_297))
(assert (hence_297 true_297 false_297 true_297))
(assert (hence_297 true_297 true_297 true_297))
(assert (not_301 true_297 false_297))
(assert (not_301 false_297 true_297))
(declare-fun diseqInt (Int Int) Bool)
(declare-fun p_369 (Int Int) Bool)
(declare-fun iszero_132 (Int) Bool)
(declare-fun issucc_132 (Int) Bool)
(assert (forall ((x_52539 Int))
	(p_369 x_52539 (succ_132 x_52539))))
(assert (iszero_132 zero_136))
(assert (forall ((x_52541 Int))
	(issucc_132 (succ_132 x_52541))))
(assert (forall ((x_52542 Int))
	(diseqInt zero_136 (succ_132 x_52542))))
(assert (forall ((x_52543 Int))
	(diseqInt (succ_132 x_52543) zero_136)))
(assert (forall ((x_52544 Int) (x_52545 Int))
	(=> (diseqInt x_52544 x_52545) (diseqInt (succ_132 x_52544) (succ_132 x_52545)))))
(declare-fun leq_50 (Bool_297 Int Int) Bool)
(assert (forall ((x_52523 Bool_297) (x_52521 Int) (z_1794 Int))
	(=> (leq_50 x_52523 z_1794 x_52521) (leq_50 x_52523 (succ_132 z_1794) (succ_132 x_52521)))))
(assert (forall ((z_1794 Int))
	(leq_50 false_297 (succ_132 z_1794) zero_136)))
(assert (forall ((y_2014 Int))
	(leq_50 true_297 zero_136 y_2014)))
(assert (forall ((x_52522 Int) (y_2015 Int))
	(=> (and true (diseqInt x_52522 y_2015) (leq_50 true_297 y_2015 x_52522) (leq_50 true_297 x_52522 y_2015)) false)))
(assert (forall ((x_52522 Int) (y_2015 Int))
	(=> (and true (diseqInt y_2015 y_2015) (leq_50 true_297 y_2015 x_52522) (leq_50 false_297 x_52522 y_2015)) false)))
(assert (forall ((x_52522 Int) (y_2015 Int))
	(=> (and true (diseqInt x_52522 x_52522) (leq_50 false_297 y_2015 x_52522) (leq_50 true_297 x_52522 y_2015)) false)))
(assert (forall ((x_52522 Int) (y_2015 Int))
	(=> (and true (diseqInt y_2015 x_52522) (leq_50 false_297 y_2015 x_52522) (leq_50 false_297 x_52522 y_2015)) false)))
(check-sat)
